proyfinal/src/viki/013/experimentInOfficeAgust.take6.output/8dbfe25c-2dbb-4363-a014-0b920a7de7e9.als.dat
{'cnf.clauses': '118081',
 'cnf.totvars': '69608',
 'conflict literals': '2',
 'conflicts': '3',
 'decisions': '3405',
 'memused.mb': '15.48',
 'outcome': 'UNSAT',
 'propagations': '24460',
 'restarts': '1',
 'solver.msecs': 29,
 'task.msecs': 84}
