proyfinal/src/viki/013/experimentInOfficeAgust.take6.output/8dbfe25c-2dbb-4363-a014-0b920a7de7e9.als.out
Reading from standard input... Use '--help' for help.
============================[ Problem Statistics ]=============================
|                                                                             |
|  Number of variables:         69608                                         |
|  Number of clauses:          118081                                         |
|  Parse time:                   0.02 s                                       |
|                                                                             |
============================[ Search Statistics ]==============================
| Conflicts |          ORIGINAL         |          LEARNT          | Progress |
|           |    Vars  Clauses Literals |    Limit  Clauses Lit/Cl |          |
===============================================================================
===============================================================================
restarts              : 1
conflicts             : 3              (100 /sec)
decisions             : 3405           (0.00 % random) (113667 /sec)
propagations          : 24460          (816531 /sec)
conflict literals     : 2              (0.00 % deleted)
Memory used           : 15.48 MB
CPU time              : 0.029956 s

UNSATISFIABLE
